(set-option :produce-models true)
(set-logic QF_UF)
(declare-fun p40() Bool)
(declare-fun p64() Bool)
(declare-fun p33() Bool)
(declare-fun p67() Bool)
(declare-fun p4() Bool)
(declare-fun p44() Bool)
(declare-fun p52() Bool)
(declare-fun p37() Bool)
(declare-fun p65() Bool)
(declare-fun p15() Bool)
(declare-fun p26() Bool)
(declare-fun p46() Bool)
(declare-fun p31() Bool)
(declare-fun p59() Bool)
(declare-fun p41() Bool)
(declare-fun p2() Bool)
(declare-fun p54() Bool)
(declare-fun p27() Bool)
(declare-fun p56() Bool)
(declare-fun p48() Bool)
(declare-fun p68() Bool)
(declare-fun p28() Bool)
(declare-fun p21() Bool)
(declare-fun p8() Bool)
(declare-fun p25() Bool)
(declare-fun p53() Bool)
(declare-fun p62() Bool)
(declare-fun p1() Bool)
(declare-fun p66() Bool)
(declare-fun p16() Bool)
(declare-fun p69() Bool)
(declare-fun p42() Bool)
(declare-fun p12() Bool)
(declare-fun p13() Bool)
(declare-fun p38() Bool)
(declare-fun p0() Bool)
(declare-fun p51() Bool)
(declare-fun p49() Bool)
(declare-fun p29() Bool)
(declare-fun p55() Bool)
(declare-fun p60() Bool)
(declare-fun p30() Bool)
(declare-fun p47() Bool)
(declare-fun p10() Bool)
(declare-fun p17() Bool)
(declare-fun p18() Bool)
(declare-fun p3() Bool)
(declare-fun p36() Bool)
(declare-fun p23() Bool)
(declare-fun p57() Bool)
(declare-fun p61() Bool)
(declare-fun p14() Bool)
(declare-fun p45() Bool)
(declare-fun p11() Bool)
(declare-fun p22() Bool)
(declare-fun p39() Bool)
(declare-fun p6() Bool)
(declare-fun p20() Bool)
(declare-fun p34() Bool)
(declare-fun p58() Bool)
(declare-fun p7() Bool)
(declare-fun p19() Bool)
(declare-fun p63() Bool)
(declare-fun p50() Bool)
(declare-fun p9() Bool)
(declare-fun p35() Bool)
(declare-fun p5() Bool)
(declare-fun p24() Bool)
(declare-fun p32() Bool)
(declare-fun p43() Bool)
(assert
(and (or (not p40) (not p64) p33) (or p67 p4 (not p44)) (or (not p52) p37 p65) (or (not p15) (not p26) p37) (or p46 p31 (not p33)) (or (not p59) p41 (not p2)) (or (not p54) p27 (not p33)) (or (not p56) p52 p48) (or p65 (not p67) p68) (or (not p2) (not p52) p59) (or p28 (not p64) p48) (or p21 (not p4) (not p8)) (or (not p68) p25 (not p53)) (or p21 (not p62) p1) (or p33 p65 p66) (or p16 (not p69) (not p42)) (or p2 (not p46) p12) (or (not p13) p65 (not p69)) (or p54 p21 p38) (or (not p25) p0 (not p51)) (or p49 p29 (not p28)) (or (not p68) (not p0) (not p55)) (or p12 (not p12) p60) (or (not p30) (not p64) p53) (or p47 (not p21) (not p10)) (or (not p17) (not p13) (not p56)) (or (not p18) p55 (not p3)) (or (not p60) p49 (not p0)) (or (not p2) (not p66) (not p64)) (or p44 (not p36) (not p55)) (or (not p23) p12 p57) (or p61 p66 p17) (or (not p56) p0 (not p14)) (or (not p45) p62 (not p45)) (or p44 p45 (not p33)) (or (not p1) p23 p11) (or p2 p45 (not p8)) (or (not p22) (not p38) (not p47)) (or (not p18) (not p30) (not p0)) (or (not p60) p14 (not p16)) (or p40 p39 p29) (or (not p68) p6 (not p51)) (or (not p1) p4 (not p67)) (or (not p45) (not p23) (not p31)) (or p20 p48 (not p48)) (or (not p34) (not p57) (not p14)) (or (not p0) p33 p58) (or (not p36) (not p42) p33) (or (not p7) p19 (not p54)) (or p15 (not p51) (not p63)) (or (not p46) (not p52) (not p69)) (or (not p38) p61 p1) (or (not p19) (not p42) p13) (or p52 p16 (not p2)) (or p68 p19 p53) (or p2 (not p34) p60) (or (not p17) p20 (not p48)) (or (not p18) p47 (not p11)) (or p22 p27 (not p58)) (or (not p57) p50 (not p42)) (or (not p60) (not p4) (not p23)) (or (not p50) (not p25) p59) (or (not p25) (not p9) p12) (or p49 (not p28) (not p4)) (or (not p54) p3 p28) (or p57 (not p39) p15) (or p60 (not p13) (not p69)) (or (not p50) (not p61) (not p35)) (or p5 (not p23) p21) (or p62 p45 (not p48)) (or (not p52) (not p30) p24) (or (not p49) (not p5) p34) (or (not p27) p53 p18) (or (not p32) (not p2) (not p68)) (or (not p52) (not p57) (not p16)) (or p33 p9 (not p30)) (or (not p3) (not p23) (not p47)) (or (not p33) p21 (not p29)) (or (not p17) (not p3) p28) (or p22 (not p47) p40) (or (not p44) p10 p44) (or p10 p5 (not p36)) (or p51 (not p26) (not p5)) (or (not p20) (not p36) (not p8)) (or p9 (not p31) (not p58)) (or (not p35) (not p8) p45) (or p56 (not p11) (not p25)) (or p66 (not p25) (not p50)) (or (not p66) (not p49) (not p59)) (or p24 (not p47) p62) (or p57 p33 (not p27)) (or p45 p67 (not p29)) (or p15 (not p10) (not p51)) (or (not p34) (not p48) (not p23)) (or p30 (not p16) p14) (or (not p66) p27 p8) (or p46 (not p7) p16) (or (not p11) p51 p50) (or p47 p34 p59) (or p52 (not p57) p25) (or (not p33) (not p62) p43) (or (not p31) (not p48) (not p34)) (or (not p20) (not p58) (not p30)) (or (not p32) p22 (not p36)) (or (not p49) p45 p27) (or p42 (not p16) (not p49)) (or p62 p35 p20) (or (not p41) (not p50) p32) (or (not p33) (not p33) p37) (or p49 p69 p0) (or p68 p34 (not p31)) (or (not p24) p42 (not p48)) (or p0 p43 (not p12)) (or (not p28) p69 p14) (or p10 (not p54) (not p51)) (or (not p50) (not p11) (not p27)) (or (not p37) (not p57) p17) (or p64 p69 (not p30)) (or (not p12) (not p36) p25) (or p46 p28 p29) (or (not p30) p16 (not p25)) (or (not p4) p65 (not p58)) (or p30 p17 p1) (or p10 (not p8) (not p69)) (or (not p65) (not p30) (not p1)) (or p62 (not p56) p29) (or (not p44) (not p20) (not p59)) (or p28 (not p38) (not p19)) (or (not p69) (not p33) (not p11)) (or (not p40) p53 (not p24)) (or p64 (not p62) (not p61)) (or (not p8) (not p16) p28) (or (not p47) p56 p2) (or p68 (not p22) p63) (or p58 (not p58) p23) (or (not p10) p28 p49) (or (not p47) (not p53) p8) (or p32 p21 (not p13)) (or (not p50) (not p65) p52) (or (not p57) (not p32) (not p58)) (or p58 (not p23) p49) (or p37 (not p66) p51) (or p10 (not p44) (not p41)) (or (not p36) p38 (not p51)) (or p11 (not p34) (not p46)) (or p12 p5 p53) (or p68 (not p31) (not p30)) (or (not p55) p4 p47) (or (not p18) (not p65) (not p7)) (or p30 p57 (not p57)) (or p31 (not p68) (not p69)) (or (not p40) p64 p65) (or (not p62) p17 (not p47)) (or p41 (not p43) p30) (or p51 p36 (not p1)) (or p35 p31 p54) (or (not p29) p1 (not p47)) (or p33 (not p47) p44) (or p38 (not p0) (not p4)) (or p56 p51 p33) (or (not p60) (not p38) p51) (or (not p16) (not p68) (not p16)) (or (not p37) (not p13) p55) (or p38 p32 p68) (or p15 p68 p52) (or p68 (not p48) (not p67)) (or (not p18) p21 p10) (or (not p24) p39 p40) (or p44 (not p53) p6) (or (not p68) (not p37) p1) (or (not p61) p31 (not p56)) (or (not p48) (not p15) (not p22)) (or p43 (not p22) (not p28)) (or p46 (not p68) p9) (or (not p39) p61 (not p21)) (or p18 (not p2) (not p16)) (or p35 (not p40) p12) (or (not p14) p25 p16) (or (not p60) (not p16) p23) (or p63 (not p3) p58) (or p5 (not p38) (not p3)) (or (not p58) p52 p0) (or (not p12) p44 (not p14)) (or p1 p36 (not p66)) (or p3 (not p48) (not p15)) (or p36 (not p11) (not p7)) (or p49 (not p27) p33) (or (not p33) p9 (not p50)) (or p14 (not p69) p65) (or (not p23) (not p41) p0) (or p29 (not p24) p52) (or (not p56) (not p59) (not p57)) (or (not p44) p58 p30) (or (not p25) p13 p53) (or (not p61) (not p38) (not p31)) (or p64 p11 (not p27)) (or p2 (not p24) p68) (or (not p62) (not p32) p37) (or (not p57) p15 p18) (or p60 p24 (not p55)) (or p29 p21 p4) (or p33 (not p28) p22) (or (not p68) (not p43) (not p12)) (or (not p66) p22 (not p69)) (or (not p37) (not p61) (not p25)) (or (not p25) p14 (not p24)) (or p36 p60 p23) (or (not p17) (not p5) (not p28)) (or p5 p39 (not p4)) (or p68 (not p17) (not p19)) (or (not p15) p37 (not p53)) (or p14 (not p28) (not p68)) (or (not p52) p59 (not p53)) (or (not p31) (not p54) (not p13)) (or (not p19) p41 (not p28)) (or p41 (not p15) (not p22)) (or p3 p67 (not p52)) (or p57 p21 p41) (or (not p26) p42 (not p61)) (or p40 p40 (not p34)) (or (not p20) (not p13) (not p42)) (or (not p50) (not p51) p65) (or (not p19) p64 p38) (or p30 (not p30) (not p20)) (or (not p8) (not p12) p31) (or (not p60) (not p58) p17) (or (not p49) (not p31) p47) (or p55 (not p14) p23) (or (not p27) p59 (not p55)) (or (not p31) (not p49) p61) (or p63 (not p52) p64) (or p7 (not p18) p62) (or (not p28) (not p3) p53) (or (not p30) p38 p66) (or p40 p24 (not p40)) (or (not p45) p9 p48) (or p22 p11 (not p14)) (or p10 (not p17) (not p64)) (or p21 p2 p31) (or (not p62) (not p42) p21) (or (not p24) p38 (not p10)) (or p37 p60 (not p15)) (or p37 p56 (not p6)) (or (not p42) (not p31) p25) (or p46 p28 p47) (or (not p47) (not p49) (not p43)) (or (not p55) p52 (not p52)) (or p2 p64 (not p50)) (or (not p10) p66 (not p11)) (or p61 p34 (not p22)) (or p34 (not p21) p59) (or p52 p3 (not p45)) (or p27 p68 p51) (or p18 (not p28) p17) (or p35 p53 p55) (or (not p32) (not p28) (not p29)) (or (not p39) (not p13) (not p9)) (or (not p38) (not p25) p0) (or p30 p64 p46) (or p26 p13 (not p60)) (or (not p64) p26 p46) (or (not p54) (not p62) (not p28)) (or p25 (not p22) p47) (or (not p45) (not p2) p0) (or (not p11) (not p42) (not p1)) (or p27 (not p64) p48) (or p63 (not p49) p54) (or p36 p56 p54) (or p69 (not p14) (not p68)) (or p22 (not p41) p23) (or (not p64) (not p11) (not p46)) (or (not p35) p65 (not p6)) (or (not p14) (not p59) (not p37)) (or p47 p44 (not p67)) (or (not p54) (not p42) (not p66)) (or p67 (not p19) (not p46)) (or (not p6) (not p0) p4) (or (not p65) p62 (not p0)) (or (not p66) (not p69) p64) (or (not p10) p45 (not p61)) (or (not p37) (not p49) p0) (or (not p66) (not p39) (not p40)) (or p0 p32 p37) (or p12 p16 (not p9)) (or p64 (not p47) (not p66)) (or (not p39) (not p22) (not p50)) (or p18 (not p16) p21) (or (not p39) (not p59) p23) (or p25 (not p39) p12) (or p45 p4 p14) (or (not p12) p62 p10) (or (not p1) p62 (not p43)) (or (not p69) (not p68) p56) (or p22 (not p13) p41) (or p7 (not p52) p14) (or (not p51) p3 p11) (or p57 (not p51) (not p2)))
)
(check-sat)
(get-model)
